experiment/data/hgs-res/Vrp-Set-P-n76/Vrp-Set-P-n76-hgs/0.hgs1.tour
Route #1: 4 30 48 21 61 22 64 42 41 43 1 73 62 28 74 2 68 75
Route #2: 67 46 8 19 54 13 57 15 37 20 70 60 71 69 36 47 5 29 45 27 52 34
Route #3: 26 7 35 53 14 59 11 66 65 38 10 58 72 12 40 17
Route #4: 6 33 63 23 56 49 24 18 50 25 55 31 39 9 32 44 3 16 51
Cost 598.196
